304 5
10 10 10 10 10 

0 0 0 0 0 0 3 2 24 36 
0 0 0 0 0 0 9 3 4 5 6 7 8 9 11 14 
9 0 0 0 2 4 3 22 16 10 
6 0 0 0 5 8 4 22 16 10 264 
6 0 0 0 8 7 3 22 16 12 
1 0 0 0 9 10 2 22 10 
7 0 0 0 7 4 5 22 21 17 16 15 
10 0 0 0 8 8 4 22 21 17 13 
7 0 0 0 10 7 4 22 17 16 13 
6 0 0 0 10 9 3 21 17 13 
10 0 0 0 4 4 3 21 20 13 
1 0 0 0 5 10 2 21 13 
1 0 0 0 10 5 1 15 
5 0 0 0 5 4 1 15 
6 0 0 0 6 8 2 19 18 
5 0 0 0 10 6 2 20 18 
7 0 0 0 10 7 1 20 
8 0 0 0 6 9 1 23 
2 0 0 0 10 10 1 23 
3 0 0 0 8 10 1 23 
5 0 0 0 7 10 1 23 
10 0 0 0 10 10 1 23 
0 0 0 0 0 0 1 94 
0 0 0 0 0 0 4 25 26 27 29 
8 4 0 0 0 0 4 34 33 32 30 
10 8 0 0 0 0 3 32 30 28 
9 8 0 0 0 0 2 30 28 
3 5 0 0 0 0 2 31 235 
5 8 0 0 0 0 1 30 
5 7 0 0 0 0 1 35 
7 10 0 0 0 0 1 35 
9 5 0 0 0 0 1 35 
5 10 0 0 0 0 1 35 
2 10 0 0 0 0 1 35 
0 0 0 0 0 0 3 58 70 82 
0 0 0 0 0 0 6 37 38 39 40 41 44 
5 2 0 0 0 5 3 56 43 42 
4 9 0 0 0 7 3 56 49 43 
5 10 0 0 0 7 2 45 42 
8 10 0 0 0 5 5 56 55 48 47 46 
4 10 0 0 0 10 5 56 55 50 49 46 
6 5 0 0 0 10 4 55 50 49 46 
9 10 0 0 0 8 4 55 50 47 46 
3 6 0 0 0 10 4 55 50 49 46 
10 6 0 0 0 8 3 56 53 50 
3 10 0 0 0 9 3 54 53 52 
10 7 0 0 0 10 2 53 51 
10 6 0 0 0 5 3 54 50 277 
10 8 0 0 0 10 1 51 
6 10 0 0 0 10 1 52 
10 3 0 0 0 6 1 52 
9 10 0 0 0 8 1 57 
4 6 0 0 0 2 1 57 
6 9 0 0 0 7 1 57 
10 7 0 0 0 6 1 57 
4 6 0 0 0 7 1 57 
0 0 0 0 0 0 1 94 
0 0 0 0 0 0 7 59 60 61 62 64 65 68 
8 0 0 0 0 2 2 67 63 
7 0 0 0 0 5 3 67 63 224 
1 0 0 0 0 8 2 67 66 
3 0 0 0 0 9 2 67 66 
10 0 0 0 0 4 1 66 
8 0 0 0 0 10 1 66 
6 0 0 0 0 10 1 66 
2 0 0 0 0 10 1 69 
2 0 0 0 0 7 1 69 
10 0 0 0 0 10 1 69 
0 0 0 0 0 0 1 94 
0 0 0 0 0 0 5 71 72 73 74 76 
7 0 0 0 0 4 3 80 77 75 
2 0 0 0 0 3 3 80 77 75 
3 0 0 0 0 8 3 80 77 75 
3 0 0 0 0 8 1 75 
8 0 0 0 0 9 2 79 78 
1 0 0 0 0 10 2 79 78 
10 0 0 0 0 10 1 78 
5 0 0 0 0 6 1 81 
10 0 0 0 0 9 1 81 
4 0 0 0 0 8 1 81 
0 0 0 0 0 0 1 94 
0 0 0 0 0 0 5 83 84 90 91 92 
3 0 0 2 0 0 3 89 87 85 
9 0 0 3 0 0 3 88 87 85 
6 0 0 10 0 0 1 86 
7 0 0 10 0 0 1 93 
9 0 0 7 0 0 1 93 
4 0 0 7 0 0 1 93 
9 0 0 8 0 0 1 93 
10 0 0 10 0 0 1 93 
4 0 0 9 0 0 1 93 
7 0 0 9 0 0 1 93 
0 0 0 0 0 0 1 94 
0 0 0 0 0 0 5 95 117 139 161 173 
0 0 0 0 0 0 9 96 97 99 100 111 112 113 114 115 
2 2 4 0 0 0 3 110 104 98 
1 8 8 0 0 0 5 109 106 105 104 102 
1 9 7 0 0 0 4 107 106 105 101 
6 10 3 0 0 0 2 108 104 
4 10 7 0 0 0 2 105 104 
7 7 7 0 0 0 1 102 
7 7 9 0 0 0 1 103 
6 9 10 0 0 0 1 116 
6 4 7 0 0 0 1 116 
4 5 7 0 0 0 1 116 
8 10 8 0 0 0 1 116 
9 7 10 0 0 0 1 116 
10 10 10 0 0 0 1 116 
5 8 2 0 0 0 1 116 
2 5 9 0 0 0 1 116 
1 8 9 0 0 0 1 116 
3 6 9 0 0 0 1 116 
1 10 10 0 0 0 1 116 
5 9 10 0 0 0 1 116 
9 6 4 0 0 0 1 116 
0 0 0 0 0 0 1 255 
0 0 0 0 0 0 8 118 119 120 122 123 125 127 137 
8 0 2 0 0 4 4 135 134 128 121 
2 0 10 0 0 10 6 135 134 133 132 130 128 
9 0 10 0 0 10 4 135 134 132 128 
2 0 10 0 0 6 3 136 132 124 
4 0 7 0 0 5 4 136 135 132 129 
4 0 4 0 0 8 3 134 133 126 
4 0 6 0 0 10 2 133 129 
5 0 8 0 0 9 1 128 
6 0 9 0 0 8 2 132 131 
5 0 3 0 0 10 2 133 131 
2 0 9 0 0 3 1 129 
10 0 7 0 0 8 1 131 
8 0 10 0 0 10 1 131 
10 0 8 0 0 9 1 138 
4 0 10 0 0 9 1 138 
9 0 8 0 0 5 1 138 
5 0 7 0 0 10 1 138 
8 0 7 0 0 6 1 138 
3 0 8 0 0 4 1 138 
5 0 7 0 0 6 1 138 
0 0 0 0 0 0 1 255 
0 0 0 0 0 0 9 140 141 142 143 144 145 146 148 151 
3 3 0 0 8 0 3 159 153 147 
6 10 0 0 6 0 3 159 153 147 
10 7 0 0 7 0 3 159 153 149 
7 10 0 0 7 0 2 159 147 
8 7 0 0 6 0 5 159 158 154 153 152 
6 10 0 0 9 0 4 159 158 154 150 
6 9 0 0 10 0 4 159 154 153 150 
8 4 0 0 5 0 3 158 154 150 
5 5 0 0 10 0 3 158 157 152 
4 10 0 0 10 0 2 158 150 
3 8 0 0 3 0 1 152 
7 6 0 0 9 0 1 152 
7 7 0 0 10 0 2 156 155 
1 5 0 0 3 0 2 157 155 
3 8 0 0 10 0 1 157 
10 9 0 0 9 0 1 160 
5 7 0 0 7 0 1 160 
4 9 0 0 5 0 1 160 
3 6 0 0 6 0 1 160 
9 10 0 0 10 0 1 160 
0 0 0 0 0 0 1 255 
0 0 0 0 0 0 5 162 163 164 168 171 
6 5 0 0 0 0 3 167 166 165 
2 5 0 0 0 0 2 166 165 
1 10 0 0 0 0 2 169 166 
1 7 0 0 0 0 2 170 169 
1 6 0 0 0 0 1 170 
6 10 0 0 0 0 1 169 
7 9 0 0 0 0 1 169 
10 7 0 0 0 0 1 172 
2 8 0 0 0 0 1 172 
6 8 0 0 0 0 1 172 
0 0 0 0 0 0 5 195 207 219 231 243 
0 0 0 0 0 0 6 174 177 179 181 192 193 
2 4 0 0 0 3 3 191 182 175 
10 10 0 0 0 10 4 190 187 183 176 
7 5 0 0 0 8 3 189 184 180 
10 4 0 0 0 5 2 182 178 
3 3 0 0 0 9 3 187 185 183 
8 8 0 0 0 7 3 186 185 182 
5 10 0 0 0 10 3 188 186 185 
1 8 0 0 0 6 1 182 
3 10 0 0 0 4 1 184 
3 6 0 0 0 6 1 184 
8 10 0 0 0 9 1 194 
2 8 0 0 0 7 1 194 
4 7 0 0 0 10 1 194 
4 10 0 0 0 5 1 194 
5 8 0 0 0 10 1 194 
5 9 0 0 0 6 1 194 
5 9 0 0 0 10 1 194 
8 6 0 0 0 10 1 194 
1 10 0 0 0 10 1 194 
6 5 0 0 0 5 1 194 
0 0 0 0 0 0 1 255 
0 0 0 0 0 0 4 196 198 199 205 
1 0 0 0 1 0 3 204 202 197 
7 0 0 0 10 0 3 203 201 200 
3 0 0 0 7 0 2 201 200 
3 0 0 0 9 0 1 202 
6 0 0 0 10 0 1 206 
7 0 0 0 10 0 1 206 
9 0 0 0 5 0 1 206 
2 0 0 0 6 0 1 206 
10 0 0 0 10 0 1 206 
6 0 0 0 7 0 1 206 
0 0 0 0 0 0 1 255 
0 0 0 0 0 0 6 208 209 210 211 213 217 
2 6 0 0 0 0 3 216 215 212 
7 7 0 0 0 0 2 215 212 
1 6 0 0 0 0 2 215 212 
10 10 0 0 0 0 1 212 
3 7 0 0 0 0 1 214 
7 5 0 0 0 0 1 216 
10 10 0 0 0 0 1 218 
8 8 0 0 0 0 1 218 
6 9 0 0 0 0 1 218 
1 7 0 0 0 0 1 218 
0 0 0 0 0 0 1 255 
0 0 0 0 0 0 7 220 222 223 224 227 228 229 
6 8 0 0 0 0 2 226 221 
4 4 0 0 0 0 1 225 
10 7 0 0 0 0 1 226 
2 5 0 0 0 0 1 225 
7 10 0 0 0 0 1 225 
5 6 0 0 0 0 1 230 
5 6 0 0 0 0 1 230 
5 9 0 0 0 0 1 230 
5 10 0 0 0 0 1 230 
1 10 0 0 0 0 1 230 
0 0 0 0 0 0 1 255 
0 0 0 0 0 0 5 232 233 234 235 237 
1 0 0 0 0 4 3 239 238 236 
8 0 0 0 0 10 2 239 236 
3 0 0 0 0 3 2 241 238 
1 0 0 0 0 10 2 241 238 
7 0 0 0 0 5 2 241 240 
10 0 0 0 0 9 2 241 240 
7 0 0 0 0 10 1 240 
5 0 0 0 0 7 1 240 
7 0 0 0 0 10 1 242 
1 0 0 0 0 7 1 242 
0 0 0 0 0 0 1 255 
0 0 0 0 0 0 5 244 245 246 249 253 
9 0 0 0 3 0 2 252 247 
10 0 0 0 9 0 2 251 248 
9 0 0 0 9 0 2 251 248 
7 0 0 0 6 0 2 251 250 
5 0 0 0 8 0 1 250 
2 0 0 0 6 0 1 250 
9 0 0 0 10 0 1 254 
3 0 0 0 7 0 1 254 
10 0 0 0 10 0 1 254 
6 0 0 0 7 0 1 254 
0 0 0 0 0 0 1 255 
0 0 0 0 0 0 4 256 268 280 292 
0 0 0 0 0 0 4 257 258 259 260 
1 0 0 0 4 0 5 266 265 264 263 261 
1 0 0 0 7 0 3 264 263 262 
7 0 0 0 4 0 2 264 261 
7 0 0 0 9 0 2 265 263 
10 0 0 0 10 0 1 262 
8 0 0 0 6 0 1 267 
6 0 0 0 8 0 1 267 
7 0 0 0 8 0 1 267 
7 0 0 0 9 0 1 267 
6 0 0 0 10 0 1 267 
0 0 0 0 0 0 1 304 
0 0 0 0 0 0 6 269 270 271 272 273 275 
3 0 0 0 0 4 3 278 276 274 
7 0 0 0 0 10 3 278 276 274 
5 0 0 0 0 6 3 278 276 274 
3 0 0 0 0 10 3 278 276 274 
3 0 0 0 0 6 2 277 276 
2 0 0 0 0 6 1 277 
1 0 0 0 0 10 1 276 
10 0 0 0 0 8 1 279 
9 0 0 0 0 10 1 279 
5 0 0 0 0 5 1 279 
0 0 0 0 0 0 1 304 
0 0 0 0 0 0 4 281 282 283 286 
9 0 0 0 2 0 4 290 289 285 284 
9 0 0 0 8 0 3 289 288 285 
8 0 0 0 7 0 2 288 285 
5 0 0 0 8 0 2 288 287 
3 0 0 0 10 0 1 287 
7 0 0 0 6 0 1 287 
5 0 0 0 10 0 1 291 
1 0 0 0 8 0 1 291 
10 0 0 0 10 0 1 291 
8 0 0 0 6 0 1 291 
0 0 0 0 0 0 1 304 
0 0 0 0 0 0 5 293 294 300 301 302 
8 0 0 4 0 0 3 299 296 295 
8 0 0 4 0 0 2 298 296 
9 0 0 9 0 0 1 297 
5 0 0 10 0 0 1 303 
5 0 0 5 0 0 1 303 
2 0 0 10 0 0 1 303 
8 0 0 7 0 0 1 303 
10 0 0 9 0 0 1 303 
3 0 0 7 0 0 1 303 
2 0 0 10 0 0 1 303 
0 0 0 0 0 0 1 304 
0 0 0 0 0 0 0 
